(set-logic QF_S)
(declare-fun var0 () String)
(declare-fun var1 () String)
(declare-fun var2 () String)
(declare-fun var3 () String)
(declare-fun var4 () String)
(declare-fun var5 () String)
(declare-fun var6 () String)
(declare-fun var7 () String)
(declare-fun var8 () String)
(declare-fun var9 () String)
(declare-fun var10 () String)
(declare-fun var11 () String)
(declare-fun var12 () String)
(declare-fun var13 () String)
(declare-fun var14 () String)
(declare-fun var15 () String)
(declare-fun var16 () String)
(declare-fun var17 () String)
(declare-fun var18 () String)
(declare-fun var19 () String)
(declare-fun var20 () String)
(declare-fun var21 () String)
(declare-fun var22 () String)
(declare-fun var23 () String)
(declare-fun var24 () String)
(declare-fun var25 () String)
(declare-fun var26 () String)
(declare-fun var27 () String)
(declare-fun var28 () String)
(declare-fun var29 () String)
(declare-fun var30 () String)
(declare-fun var31 () String)
(declare-fun var32 () String)
(declare-fun var33 () String)
(declare-fun var34 () String)
(declare-fun var35 () String)
(declare-fun var36 () String)
(declare-fun var37 () String)
(declare-fun var38 () String)
(declare-fun var39 () String)
(declare-fun var40 () String)
(declare-fun var41 () String)
(declare-fun var42 () String)
(declare-fun var43 () String)
(declare-fun var44 () String)
(declare-fun var45 () String)
(declare-fun var46 () String)
(declare-fun var47 () String)
(declare-fun var48 () String)
(declare-fun var49 () String)
(declare-fun var50 () String)
(declare-fun var51 () String)
(declare-fun var52 () String)
(declare-fun var53 () String)
(declare-fun var54 () String)
(declare-fun var55 () String)
(declare-fun var56 () String)
(declare-fun var57 () String)
(declare-fun var58 () String)
(declare-fun var59 () String)
(declare-fun var60 () String)
(assert (= var0 (Concat var1 var2)))
(assert (= var2 (Concat var3 var4)))
(assert (= var4 (Concat var5 var6)))
(assert (= var6 (Concat var7 var8)))
(assert (= var8 (Concat var9 var10)))
(assert (= var10 (Concat var11 var12)))
(assert (= var12 (Concat var13 var14)))
(assert (= var14 (Concat var15 var16)))
(assert (= var16 (Concat var17 var18)))
(assert (= var18 (Concat var19 var20)))
(assert (= var20 (Concat var21 var22)))
(assert (= var22 (Concat var23 var24)))
(assert (= var24 (Concat var25 var26)))
(assert (= var26 (Concat var27 var28)))
(assert (= var28 (Concat var29 var30)))
(assert (= var30 (Concat var31 var32)))
(assert (= var32 (Concat var33 var34)))
(assert (= var34 (Concat var35 var36)))
(assert (= var36 (Concat var37 var38)))
(assert (= var38 (Concat var39 var40)))
(assert (= var40 (Concat var41 var42)))
(assert (= var42 (Concat var43 var44)))
(assert (= var44 (Concat var45 var46)))
(assert (= var46 (Concat var47 var48)))
(assert (= var48 (Concat var49 var50)))
(assert (= var50 (Concat var51 var52)))
(assert (= var52 (Concat var53 var54)))
(assert (= var54 (Concat var55 var56)))
(assert (= var56 (Concat var57 var58)))
(assert (= var58 (Concat var59 var60)))
(assert (= var0 "solution"))
(assert (= "n" (CharAt var27 100)))
(assert (= "4" (CharAt var24 674)))
(assert (= "n" (CharAt var28 273)))
(assert (= "e" (CharAt var9 616)))
(assert (= "&" (CharAt var28 3)))
(assert (= "8" (CharAt var12 14)))
(assert (= "8" (CharAt var57 996)))
(assert (= "}" (CharAt var10 278)))
(assert (= "=" (CharAt var2 753)))
(assert (= "f" (CharAt var46 154)))
(assert (= "\"" (CharAt var10 548)))
(assert (= "e" (CharAt var37 235)))
(assert (= "k" (CharAt var57 822)))
(assert (= "#" (CharAt var45 65)))
(assert (= "e" (CharAt var39 89)))
(assert (= "L" (CharAt var54 470)))
(assert (= "G" (CharAt var42 389)))
(assert (= "~" (CharAt var42 750)))
(assert (= "\\" (CharAt var59 79)))
(assert (= "(" (CharAt var34 551)))
(assert (= "2" (CharAt var39 420)))
(assert (= "@" (CharAt var10 839)))
(assert (= ":" (CharAt var5 312)))
(assert (= "A" (CharAt var24 762)))
(assert (= "h" (CharAt var3 13)))
(assert (= "x" (CharAt var20 396)))
(assert (= "u" (CharAt var10 343)))
(assert (= "v" (CharAt var52 600)))
(assert (= "[" (CharAt var11 409)))
(assert (= "7" (CharAt var15 357)))
(assert (= "i" (CharAt var29 602)))
(assert (= "&" (CharAt var16 317)))
(assert (= "3" (CharAt var45 474)))
(assert (= "F" (CharAt var36 281)))
(assert (= "%" (CharAt var20 854)))
(assert (= "r" (CharAt var10 732)))
(assert (= "V" (CharAt var45 284)))
(assert (= "\"" (CharAt var24 450)))
(assert (= "h" (CharAt var31 798)))
(assert (= "/" (CharAt var37 683)))
(assert (= "M" (CharAt var29 354)))
(assert (= "2" (CharAt var39 520)))
(assert (= "W" (CharAt var29 158)))
(assert (= "t" (CharAt var57 477)))
(assert (= "%" (CharAt var34 818)))
(assert (= "R" (CharAt var39 569)))
(assert (= "'" (CharAt var8 64)))
(assert (= "I" (CharAt var16 431)))
(assert (= "b" (CharAt var30 11)))
(assert (= "^" (CharAt var19 304)))
(assert (= "q" (CharAt var11 781)))
(assert (= ";" (CharAt var31 469)))
(assert (= "8" (CharAt var17 98)))
(assert (= "`" (CharAt var53 501)))
(assert (= "-" (CharAt var31 167)))
(assert (= "H" (CharAt var11 429)))
(assert (= "H" (CharAt var59 408)))
(assert (= "c" (CharAt var52 636)))
(assert (= "M" (CharAt var58 265)))
(assert (= "5" (CharAt var42 806)))
(assert (= "j" (CharAt var50 528)))
(assert (= "J" (CharAt var45 673)))
(assert (= "-" (CharAt var48 690)))
(assert (= "<" (CharAt var4 581)))
(assert (= "<" (CharAt var39 250)))
(assert (= ">" (CharAt var49 596)))
(assert (= "/" (CharAt var23 389)))
(assert (= "6" (CharAt var13 836)))
(assert (= "s" (CharAt var18 626)))
(assert (= "9" (CharAt var13 758)))
(assert (= "<" (CharAt var27 906)))
(assert (= ":" (CharAt var38 352)))
(assert (= "O" (CharAt var27 129)))
(assert (= "P" (CharAt var29 13)))
(assert (= "." (CharAt var31 646)))
(assert (= "a" (CharAt var50 643)))
(assert (= "K" (CharAt var36 665)))
(assert (= "A" (CharAt var47 922)))
(assert (= "H" (CharAt var53 567)))
(assert (= "B" (CharAt var46 305)))
(assert (= "S" (CharAt var40 207)))
(check-sat)
(get-model)